p cnf 42 602
1 2 3 0
4 5 6 0
7 8 9 0
10 11 12 0
13 14 15 0
16 17 18 0
19 20 21 0
22 23 24 0
25 26 27 0
28 29 30 0
31 32 33 0
34 35 36 0
37 38 39 0
40 41 42 0
-1 -2 0
-1 -3 0
-2 -3 0
-4 -5 0
-4 -6 0
-5 -6 0
-7 -8 0
-7 -9 0
-8 -9 0
-10 -11 0
-10 -12 0
-11 -12 0
-13 -14 0
-13 -15 0
-14 -15 0
-16 -17 0
-16 -18 0
-17 -18 0
-19 -20 0
-19 -21 0
-20 -21 0
-22 -23 0
-22 -24 0
-23 -24 0
-25 -26 0
-25 -27 0
-26 -27 0
-28 -29 0
-28 -30 0
-29 -30 0
-31 -32 0
-31 -33 0
-32 -33 0
-34 -35 0
-34 -36 0
-35 -36 0
-37 -38 0
-37 -39 0
-38 -39 0
-40 -41 0
-40 -42 0
-41 -42 0
-1 5 6 0
-2 4 6 0
-3 4 5 0
-1 7 8 9 0
-2 7 8 9 0
-3 7 8 9 0
-1 10 11 12 0
-2 10 11 12 0
-3 10 11 12 0
-1 14 15 0
-2 13 15 0
-3 13 14 0
-1 17 18 0
-2 16 18 0
-3 16 17 0
-1 20 21 0
-2 19 21 0
-3 19 20 0
-1 23 24 0
-2 22 24 0
-3 22 23 0
-1 26 27 0
-2 25 27 0
-3 25 26 0
-1 29 30 0
-2 28 30 0
-3 28 29 0
-1 32 33 0
-2 31 33 0
-3 31 32 0
-1 35 36 0
-2 34 36 0
-3 34 35 0
-1 38 39 0
-2 37 39 0
-3 37 38 0
-1 41 42 0
-2 40 42 0
-3 40 41 0
-4 2 3 0
-5 1 3 0
-6 1 2 0
-4 7 8 9 0
-5 7 8 9 0
-6 7 8 9 0
-4 11 12 0
-5 10 12 0
-6 10 11 0
-4 13 14 15 0
-5 13 14 15 0
-6 13 14 15 0
-4 17 18 0
-5 16 18 0
-6 16 17 0
-4 20 21 0
-5 19 21 0
-6 19 20 0
-4 23 24 0
-5 22 24 0
-6 22 23 0
-4 26 27 0
-5 25 27 0
-6 25 26 0
-4 29 30 0
-5 28 30 0
-6 28 29 0
-4 32 33 0
-5 31 33 0
-6 31 32 0
-4 35 36 0
-5 34 36 0
-6 34 35 0
-4 38 39 0
-5 37 39 0
-6 37 38 0
-4 41 42 0
-5 40 42 0
-6 40 41 0
-7 1 2 3 0
-8 1 2 3 0
-9 1 2 3 0
-7 4 5 6 0
-8 4 5 6 0
-9 4 5 6 0
-7 11 12 0
-8 10 12 0
-9 10 11 0
-7 14 15 0
-8 13 15 0
-9 13 14 0
-7 17 18 0
-8 16 18 0
-9 16 17 0
-7 20 21 0
-8 19 21 0
-9 19 20 0
-7 23 24 0
-8 22 24 0
-9 22 23 0
-7 26 27 0
-8 25 27 0
-9 25 26 0
-7 29 30 0
-8 28 30 0
-9 28 29 0
-7 31 32 33 0
-8 31 32 33 0
-9 31 32 33 0
-7 35 36 0
-8 34 36 0
-9 34 35 0
-7 38 39 0
-8 37 39 0
-9 37 38 0
-7 40 41 42 0
-8 40 41 42 0
-9 40 41 42 0
-10 1 2 3 0
-11 1 2 3 0
-12 1 2 3 0
-10 5 6 0
-11 4 6 0
-12 4 5 0
-10 8 9 0
-11 7 9 0
-12 7 8 0
-10 14 15 0
-11 13 15 0
-12 13 14 0
-10 17 18 0
-11 16 18 0
-12 16 17 0
-10 20 21 0
-11 19 21 0
-12 19 20 0
-10 23 24 0
-11 22 24 0
-12 22 23 0
-10 26 27 0
-11 25 27 0
-12 25 26 0
-10 29 30 0
-11 28 30 0
-12 28 29 0
-10 32 33 0
-11 31 33 0
-12 31 32 0
-10 35 36 0
-11 34 36 0
-12 34 35 0
-10 38 39 0
-11 37 39 0
-12 37 38 0
-10 41 42 0
-11 40 42 0
-12 40 41 0
-13 2 3 0
-14 1 3 0
-15 1 2 0
-13 4 5 6 0
-14 4 5 6 0
-15 4 5 6 0
-13 8 9 0
-14 7 9 0
-15 7 8 0
-13 11 12 0
-14 10 12 0
-15 10 11 0
-13 17 18 0
-14 16 18 0
-15 16 17 0
-13 20 21 0
-14 19 21 0
-15 19 20 0
-13 23 24 0
-14 22 24 0
-15 22 23 0
-13 26 27 0
-14 25 27 0
-15 25 26 0
-13 29 30 0
-14 28 30 0
-15 28 29 0
-13 32 33 0
-14 31 33 0
-15 31 32 0
-13 35 36 0
-14 34 36 0
-15 34 35 0
-13 38 39 0
-14 37 39 0
-15 37 38 0
-13 41 42 0
-14 40 42 0
-15 40 41 0
-16 2 3 0
-17 1 3 0
-18 1 2 0
-16 5 6 0
-17 4 6 0
-18 4 5 0
-16 8 9 0
-17 7 9 0
-18 7 8 0
-16 11 12 0
-17 10 12 0
-18 10 11 0
-16 14 15 0
-17 13 15 0
-18 13 14 0
-16 20 21 0
-17 19 21 0
-18 19 20 0
-16 23 24 0
-17 22 24 0
-18 22 23 0
-16 26 27 0
-17 25 27 0
-18 25 26 0
-16 29 30 0
-17 28 30 0
-18 28 29 0
-16 32 33 0
-17 31 33 0
-18 31 32 0
-16 35 36 0
-17 34 36 0
-18 34 35 0
-16 38 39 0
-17 37 39 0
-18 37 38 0
-16 41 42 0
-17 40 42 0
-18 40 41 0
-19 2 3 0
-20 1 3 0
-21 1 2 0
-19 5 6 0
-20 4 6 0
-21 4 5 0
-19 8 9 0
-20 7 9 0
-21 7 8 0
-19 11 12 0
-20 10 12 0
-21 10 11 0
-19 14 15 0
-20 13 15 0
-21 13 14 0
-19 17 18 0
-20 16 18 0
-21 16 17 0
-19 23 24 0
-20 22 24 0
-21 22 23 0
-19 26 27 0
-20 25 27 0
-21 25 26 0
-19 29 30 0
-20 28 30 0
-21 28 29 0
-19 32 33 0
-20 31 33 0
-21 31 32 0
-19 35 36 0
-20 34 36 0
-21 34 35 0
-19 38 39 0
-20 37 39 0
-21 37 38 0
-19 41 42 0
-20 40 42 0
-21 40 41 0
-22 2 3 0
-23 1 3 0
-24 1 2 0
-22 5 6 0
-23 4 6 0
-24 4 5 0
-22 8 9 0
-23 7 9 0
-24 7 8 0
-22 11 12 0
-23 10 12 0
-24 10 11 0
-22 14 15 0
-23 13 15 0
-24 13 14 0
-22 17 18 0
-23 16 18 0
-24 16 17 0
-22 20 21 0
-23 19 21 0
-24 19 20 0
-22 25 26 27 0
-23 25 26 27 0
-24 25 26 27 0
-22 29 30 0
-23 28 30 0
-24 28 29 0
-22 32 33 0
-23 31 33 0
-24 31 32 0
-22 34 35 36 0
-23 34 35 36 0
-24 34 35 36 0
-22 38 39 0
-23 37 39 0
-24 37 38 0
-22 41 42 0
-23 40 42 0
-24 40 41 0
-25 2 3 0
-26 1 3 0
-27 1 2 0
-25 5 6 0
-26 4 6 0
-27 4 5 0
-25 8 9 0
-26 7 9 0
-27 7 8 0
-25 11 12 0
-26 10 12 0
-27 10 11 0
-25 14 15 0
-26 13 15 0
-27 13 14 0
-25 17 18 0
-26 16 18 0
-27 16 17 0
-25 20 21 0
-26 19 21 0
-27 19 20 0
-25 22 23 24 0
-26 22 23 24 0
-27 22 23 24 0
-25 29 30 0
-26 28 30 0
-27 28 29 0
-25 32 33 0
-26 31 33 0
-27 31 32 0
-25 34 35 36 0
-26 34 35 36 0
-27 34 35 36 0
-25 38 39 0
-26 37 39 0
-27 37 38 0
-25 41 42 0
-26 40 42 0
-27 40 41 0
-28 2 3 0
-29 1 3 0
-30 1 2 0
-28 5 6 0
-29 4 6 0
-30 4 5 0
-28 8 9 0
-29 7 9 0
-30 7 8 0
-28 11 12 0
-29 10 12 0
-30 10 11 0
-28 14 15 0
-29 13 15 0
-30 13 14 0
-28 17 18 0
-29 16 18 0
-30 16 17 0
-28 20 21 0
-29 19 21 0
-30 19 20 0
-28 23 24 0
-29 22 24 0
-30 22 23 0
-28 26 27 0
-29 25 27 0
-30 25 26 0
-28 32 33 0
-29 31 33 0
-30 31 32 0
-28 35 36 0
-29 34 36 0
-30 34 35 0
-28 38 39 0
-29 37 39 0
-30 37 38 0
-28 41 42 0
-29 40 42 0
-30 40 41 0
-31 2 3 0
-32 1 3 0
-33 1 2 0
-31 5 6 0
-32 4 6 0
-33 4 5 0
-31 7 8 9 0
-32 7 8 9 0
-33 7 8 9 0
-31 11 12 0
-32 10 12 0
-33 10 11 0
-31 14 15 0
-32 13 15 0
-33 13 14 0
-31 17 18 0
-32 16 18 0
-33 16 17 0
-31 20 21 0
-32 19 21 0
-33 19 20 0
-31 23 24 0
-32 22 24 0
-33 22 23 0
-31 26 27 0
-32 25 27 0
-33 25 26 0
-31 29 30 0
-32 28 30 0
-33 28 29 0
-31 35 36 0
-32 34 36 0
-33 34 35 0
-31 38 39 0
-32 37 39 0
-33 37 38 0
-31 41 42 0
-32 40 42 0
-33 40 41 0
-34 2 3 0
-35 1 3 0
-36 1 2 0
-34 5 6 0
-35 4 6 0
-36 4 5 0
-34 8 9 0
-35 7 9 0
-36 7 8 0
-34 11 12 0
-35 10 12 0
-36 10 11 0
-34 14 15 0
-35 13 15 0
-36 13 14 0
-34 17 18 0
-35 16 18 0
-36 16 17 0
-34 20 21 0
-35 19 21 0
-36 19 20 0
-34 22 23 24 0
-35 22 23 24 0
-36 22 23 24 0
-34 25 26 27 0
-35 25 26 27 0
-36 25 26 27 0
-34 29 30 0
-35 28 30 0
-36 28 29 0
-34 32 33 0
-35 31 33 0
-36 31 32 0
-34 38 39 0
-35 37 39 0
-36 37 38 0
-34 41 42 0
-35 40 42 0
-36 40 41 0
-37 2 3 0
-38 1 3 0
-39 1 2 0
-37 5 6 0
-38 4 6 0
-39 4 5 0
-37 8 9 0
-38 7 9 0
-39 7 8 0
-37 11 12 0
-38 10 12 0
-39 10 11 0
-37 14 15 0
-38 13 15 0
-39 13 14 0
-37 17 18 0
-38 16 18 0
-39 16 17 0
-37 20 21 0
-38 19 21 0
-39 19 20 0
-37 23 24 0
-38 22 24 0
-39 22 23 0
-37 26 27 0
-38 25 27 0
-39 25 26 0
-37 29 30 0
-38 28 30 0
-39 28 29 0
-37 32 33 0
-38 31 33 0
-39 31 32 0
-37 35 36 0
-38 34 36 0
-39 34 35 0
-37 40 41 42 0
-38 40 41 42 0
-39 40 41 42 0
-40 2 3 0
-41 1 3 0
-42 1 2 0
-40 5 6 0
-41 4 6 0
-42 4 5 0
-40 7 8 9 0
-41 7 8 9 0
-42 7 8 9 0
-40 11 12 0
-41 10 12 0
-42 10 11 0
-40 14 15 0
-41 13 15 0
-42 13 14 0
-40 17 18 0
-41 16 18 0
-42 16 17 0
-40 20 21 0
-41 19 21 0
-42 19 20 0
-40 23 24 0
-41 22 24 0
-42 22 23 0
-40 26 27 0
-41 25 27 0
-42 25 26 0
-40 29 30 0
-41 28 30 0
-42 28 29 0
-40 32 33 0
-41 31 33 0
-42 31 32 0
-40 35 36 0
-41 34 36 0
-42 34 35 0
-40 37 38 39 0
-41 37 38 39 0
-42 37 38 39 0
